language ESSENCE' 1.0
$ Minion SolverNodes: 1
$ Minion SolverTotalTime: 0.039599
$ Minion SolverTimeOut: 0
$ Savile Row TotalTime: 0.357
letting M be [[46, 7, 17, 23, 4], 
[7, 17, 23, 4, -1], 
[4, 17, 23, -1, -1], 
[17, 23, -1, -1, -1], 
[23, -1, -1, -1, -1]]
